180 1611 
1 135 1
1 149 1
1 130 -1
1 172 1
1 105 1
1 108 1
1 126 1
1 43 -1
1 166 1
1 136 1
1 92 -1
1 64 -1
1 36 1
1 16 1
2 79 1
2 140 -1
2 47 -1
2 59 1
2 52 -1
2 157 1
2 143 1
2 12 -1
2 35 -1
2 16 1
2 15 -1
2 135 1
2 177 1
2 34 -1
2 25 1
2 96 1
2 122 -1
3 122 1
3 124 -1
3 150 1
3 42 1
3 80 -1
3 171 -1
3 141 -1
3 158 1
3 44 -1
3 178 1
3 105 -1
3 41 1
3 109 1
3 146 1
3 163 1
4 88 1
4 11 -1
4 50 -1
4 84 1
4 78 1
4 121 1
4 95 -1
4 87 -1
4 116 -1
4 105 -1
4 47 1
4 37 1
4 75 1
4 133 -1
4 140 -1
4 158 -1
4 9 -1
4 179 -1
4 53 -1
4 152 -1
4 32 1
5 99 -1
5 39 -1
5 180 -1
5 130 1
5 92 -1
5 51 1
5 105 1
5 45 1
5 87 1
5 72 -1
5 90 1
5 166 1
5 158 1
5 139 -1
5 162 1
5 98 -1
5 171 1
5 20 1
5 79 1
5 165 -1
5 66 1
5 111 1
5 14 -1
5 116 1
5 93 1
6 26 1
6 128 1
6 34 1
6 114 -1
6 33 -1
6 127 1
6 55 -1
6 109 -1
6 21 -1
6 110 1
6 48 -1
6 151 1
7 167 1
7 86 -1
7 9 -1
7 99 -1
7 76 -1
7 151 1
7 31 1
7 111 1
7 81 1
7 32 -1
7 74 1
7 56 -1
7 162 1
7 102 -1
7 24 -1
7 39 -1
7 104 1
7 75 -1
8 127 1
8 26 1
8 97 1
8 106 -1
8 123 -1
8 21 1
8 115 1
8 110 1
8 139 1
8 92 -1
8 60 1
8 175 1
8 83 1
8 120 -1
8 36 -1
8 138 1
8 105 1
8 88 -1
8 20 1
8 162 -1
8 70 -1
9 79 -1
9 106 1
9 152 1
9 32 1
9 57 1
9 117 1
9 67 1
9 90 -1
9 82 -1
9 44 -1
9 140 -1
9 146 -1
9 104 -1
9 128 -1
9 136 -1
9 139 -1
9 107 -1
9 114 1
9 108 1
9 153 -1
10 153 1
10 126 -1
10 50 1
10 106 -1
10 151 1
10 136 1
10 127 -1
10 137 -1
10 79 1
10 159 1
10 124 1
10 161 1
10 149 -1
10 145 -1
10 27 -1
10 78 1
10 60 -1
10 45 1
10 52 -1
11 20 -1
11 83 1
11 52 -1
11 33 -1
11 18 1
11 29 1
11 53 1
11 158 -1
11 136 1
11 15 -1
11 63 1
11 163 1
11 17 -1
11 109 -1
11 132 1
12 41 1
12 62 1
12 39 1
12 102 -1
12 58 1
12 89 -1
12 84 1
12 175 1
12 118 -1
12 32 1
12 74 -1
12 82 1
12 72 1
12 50 1
12 136 -1
12 138 -1
12 107 1
12 160 1
13 159 -1
13 27 -1
13 142 -1
13 26 -1
13 151 1
13 105 -1
13 99 1
13 74 1
13 168 -1
13 137 -1
13 77 1
13 66 1
13 169 1
13 16 -1
14 67 1
14 179 -1
14 56 -1
14 26 1
14 126 -1
14 19 -1
14 132 1
14 39 1
14 30 1
14 157 1
14 66 1
14 15 -1
14 159 -1
14 135 -1
14 122 1
14 162 1
15 133 1
15 164 -1
15 51 1
15 126 -1
15 76 1
15 64 -1
15 158 -1
15 24 1
15 26 -1
15 116 -1
15 106 -1
15 132 1
15 81 1
15 171 -1
15 173 -1
15 47 1
15 19 1
15 122 -1
16 167 1
16 152 -1
16 133 1
16 143 1
16 119 -1
16 153 1
16 118 -1
16 77 -1
16 160 -1
16 171 1
16 112 1
16 37 1
16 69 1
16 130 1
16 142 -1
17 150 1
17 122 1
17 26 1
17 126 -1
17 118 1
17 125 -1
17 115 -1
17 105 -1
17 98 -1
17 69 1
17 135 -1
17 93 1
17 78 1
17 33 1
17 124 -1
17 40 1
17 101 1
17 169 -1
18 29 1
18 54 -1
18 67 -1
18 62 1
18 65 -1
18 170 1
18 41 1
18 119 1
18 47 -1
18 150 1
18 129 -1
18 53 -1
18 146 1
18 124 -1
18 116 -1
18 92 -1
18 87 -1
18 85 1
18 107 -1
18 128 -1
18 173 1
19 47 -1
19 144 -1
19 115 -1
19 44 1
19 138 -1
19 128 1
19 62 -1
19 49 1
19 98 1
19 67 -1
19 29 1
19 41 1
19 71 1
20 100 -1
20 121 1
20 99 1
20 76 -1
20 73 -1
20 23 -1
20 140 -1
20 96 -1
20 52 1
20 130 1
20 167 1
20 79 1
20 57 -1
20 139 -1
20 105 1
20 24 1
20 70 1
20 61 1
20 21 1
21 58 -1
21 24 -1
21 127 1
21 104 1
21 53 -1
21 60 1
21 136 -1
21 158 1
21 117 1
21 25 1
21 44 1
21 180 -1
21 23 1
21 134 1
21 176 1
22 23 1
22 126 1
22 141 1
22 125 -1
22 39 -1
22 28 -1
22 107 -1
22 169 1
22 178 -1
22 33 1
22 34 -1
22 99 -1
22 139 1
22 170 -1
22 129 -1
22 144 -1
22 164 -1
22 145 -1
22 36 -1
22 76 1
23 120 -1
23 32 -1
23 81 -1
23 156 -1
23 128 1
23 167 -1
23 160 1
23 116 1
23 82 1
23 158 1
23 137 1
24 38 -1
24 97 -1
24 74 1
24 87 -1
24 116 1
24 71 -1
24 50 -1
24 109 1
24 41 -1
24 179 1
24 40 -1
24 100 -1
24 81 1
24 169 1
24 125 -1
24 93 1
24 149 1
25 145 1
25 55 -1
25 73 1
25 142 1
25 164 1
25 175 -1
25 155 -1
25 47 1
25 100 1
25 65 1
25 165 -1
25 89 -1
25 161 1
25 157 1
25 80 -1
25 163 1
25 118 1
25 92 -1
26 48 1
26 148 -1
26 176 1
26 64 1
26 177 1
26 124 -1
26 29 -1
26 42 1
26 78 -1
26 76 -1
26 123 -1
26 138 -1
26 105 -1
26 144 -1
26 52 1
26 91 1
27 85 -1
27 111 -1
27 67 1
27 77 1
27 175 -1
27 55 1
27 41 1
27 104 1
27 137 -1
27 142 -1
27 93 -1
27 149 1
28 86 1
28 168 1
28 109 -1
28 29 -1
28 161 1
28 55 -1
28 34 -1
28 120 -1
28 64 -1
28 106 1
28 80 1
28 51 -1
28 79 1
28 83 1
28 177 -1
28 165 -1
28 77 -1
28 38 1
29 112 -1
29 169 1
29 74 1
29 153 -1
29 53 -1
29 59 -1
29 139 1
29 132 -1
29 131 -1
29 101 -1
29 32 -1
29 109 1
29 70 -1
29 54 1
30 31 1
30 100 -1
30 150 1
30 75 1
30 132 1
30 154 1
30 121 -1
30 158 -1
30 126 1
30 74 1
30 149 1
30 67 1
30 128 1
31 71 1
31 108 1
31 173 -1
31 134 1
31 86 -1
31 100 -1
31 151 1
31 178 1
31 47 1
31 76 1
31 136 1
31 114 -1
31 74 1
31 161 -1
31 59 1
31 94 1
31 172 1
31 110 -1
31 176 -1
31 177 1
31 155 -1
32 68 -1
32 161 1
32 42 1
32 43 -1
32 120 -1
32 166 -1
32 113 -1
32 50 1
32 36 1
32 176 1
32 123 1
32 119 1
32 138 -1
33 99 -1
33 121 1
33 157 1
33 101 -1
33 165 -1
33 39 1
33 85 1
33 74 -1
33 114 -1
33 106 -1
34 113 1
34 93 -1
34 69 -1
34 88 -1
34 179 1
34 153 -1
34 44 1
34 156 -1
34 130 -1
35 94 1
35 136 1
35 142 1
35 118 1
35 68 1
35 96 -1
35 43 -1
35 42 -1
35 149 1
35 145 1
36 138 1
36 53 1
36 52 -1
36 85 1
36 110 -1
36 69 1
36 56 -1
36 171 1
36 169 1
36 75 1
36 77 -1
36 177 -1
36 144 1
36 38 1
36 76 -1
36 157 -1
37 62 -1
37 123 -1
37 144 1
37 53 1
37 124 -1
37 106 -1
37 102 -1
37 170 -1
37 152 -1
37 119 -1
37 63 1
38 106 1
38 172 1
38 77 1
38 104 1
38 83 -1
38 99 -1
38 57 1
38 110 -1
38 174 1
38 168 1
38 115 1
38 163 -1
38 78 -1
38 167 1
38 171 1
39 111 -1
39 114 1
39 69 -1
39 65 1
39 133 1
39 48 -1
39 122 1
39 158 1
39 129 1
39 105 -1
39 62 1
39 106 -1
40 41 -1
40 116 -1
40 158 -1
40 88 1
40 58 -1
40 167 1
40 93 1
40 142 -1
40 77 -1
40 161 -1
40 91 -1
40 165 1
41 95 1
41 139 1
41 136 -1
41 78 -1
41 49 -1
41 94 1
41 97 -1
41 133 -1
41 66 1
41 59 -1
41 169 1
42 70 1
42 59 1
42 154 1
42 60 1
42 129 1
42 126 1
42 72 1
42 98 -1
42 172 -1
42 124 1
42 105 1
42 100 1
42 102 1
43 119 1
43 111 -1
43 134 1
43 161 1
43 124 1
43 174 1
43 139 1
43 133 1
43 93 1
43 52 1
43 152 1
43 63 1
43 50 -1
43 58 -1
43 85 1
43 150 1
43 146 -1
44 87 1
44 152 -1
44 167 1
44 90 -1
44 180 -1
44 46 1
44 75 1
44 161 1
44 149 1
44 108 -1
44 131 1
44 122 1
44 97 -1
44 176 -1
44 88 1
44 158 -1
44 112 1
44 170 -1
44 143 -1
45 174 -1
45 123 1
45 110 -1
45 72 -1
45 118 -1
45 153 -1
45 96 -1
45 170 1
45 111 -1
45 114 -1
45 101 -1
45 94 1
45 173 -1
45 106 -1
46 155 -1
46 125 1
46 127 1
46 144 -1
46 150 1
46 179 -1
46 74 1
46 131 1
46 96 1
46 83 1
46 151 -1
46 114 1
46 156 1
46 47 1
47 68 1
47 74 -1
47 110 -1
47 65 1
47 125 -1
47 108 -1
47 67 -1
47 59 1
47 94 -1
47 60 1
47 62 -1
47 50 -1
47 84 1
47 176 -1
47 53 -1
47 98 -1
47 135 1
47 178 1
48 163 -1
48 137 -1
48 96 1
48 63 -1
48 59 -1
48 113 -1
48 109 -1
48 56 1
48 106 1
48 133 1
48 151 -1
48 177 1
48 179 1
48 180 1
48 91 1
48 66 1
48 119 1
49 169 -1
49 153 1
49 117 1
49 76 1
49 122 1
49 54 -1
49 170 1
49 166 1
49 99 1
49 96 1
49 161 -1
49 115 1
49 84 -1
49 143 1
49 50 -1
50 83 1
50 166 -1
50 73 1
50 72 -1
50 161 -1
50 155 1
50 132 -1
50 178 -1
50 139 -1
50 65 1
50 173 -1
51 99 -1
51 125 1
51 164 1
51 167 -1
51 91 -1
51 53 -1
51 138 -1
51 180 1
51 174 -1
51 124 1
51 132 -1
52 119 -1
52 178 1
52 70 -1
52 87 -1
52 71 -1
52 93 1
52 132 1
52 56 -1
52 153 -1
52 88 -1
52 106 1
52 174 1
52 116 -1
53 101 -1
53 139 -1
53 71 1
53 174 1
53 155 -1
53 67 -1
53 167 1
53 175 1
53 73 -1
53 106 1
53 80 1
53 100 1
53 91 1
53 147 -1
53 86 1
53 137 -1
54 113 1
54 74 1
54 142 -1
54 102 -1
54 168 1
54 75 -1
54 105 1
54 89 1
54 124 -1
54 118 1
54 63 -1
54 154 1
54 86 1
55 87 1
55 167 -1
55 172 -1
55 164 -1
55 65 -1
55 98 1
55 63 -1
55 160 1
56 57 1
56 146 -1
56 82 1
56 132 1
56 112 1
56 104 1
56 156 -1
56 105 -1
56 128 -1
56 100 -1
56 83 1
57 78 -1
57 122 -1
57 97 -1
57 62 1
57 119 1
57 60 -1
57 174 -1
57 121 -1
57 151 1
57 107 1
57 167 1
57 109 -1
57 128 1
57 169 1
57 159 1
57 104 1
58 72 -1
58 89 1
58 134 1
58 180 1
58 118 -1
58 170 -1
58 80 -1
58 155 -1
58 66 1
58 127 -1
58 121 -1
58 69 -1
58 126 -1
58 124 -1
58 151 1
58 115 -1
58 59 -1
58 71 -1
59 155 1
59 135 -1
59 122 -1
59 91 1
59 92 -1
59 116 -1
60 150 1
60 142 1
60 76 1
60 179 1
60 62 -1
60 107 1
60 178 -1
60 146 1
60 180 1
61 78 -1
61 132 -1
61 64 1
61 82 -1
61 166 1
61 67 -1
61 71 -1
61 70 1
62 115 -1
62 158 -1
62 149 1
62 123 1
62 162 1
62 122 -1
62 150 -1
62 78 1
62 134 -1
62 129 1
62 93 -1
62 76 1
62 104 1
62 143 1
62 148 -1
62 84 -1
62 177 1
63 77 -1
63 143 1
63 101 -1
63 164 1
63 104 1
63 176 -1
63 83 1
63 76 1
63 158 -1
63 162 1
63 137 -1
63 111 1
63 142 1
63 177 -1
64 98 -1
64 155 1
64 180 1
64 77 1
64 138 1
64 109 -1
64 66 -1
64 83 -1
64 122 -1
64 124 -1
64 110 1
65 105 -1
65 115 -1
65 109 1
65 127 -1
65 79 -1
65 169 -1
66 84 1
66 160 -1
66 114 1
66 96 -1
66 128 -1
67 155 1
67 88 -1
67 80 -1
67 131 -1
67 114 1
67 179 1
67 115 -1
67 133 -1
68 97 -1
68 93 1
68 172 1
68 99 1
68 109 -1
68 153 -1
68 126 1
68 107 1
69 173 1
69 122 1
69 123 -1
69 99 1
69 152 1
69 110 1
69 158 1
69 177 -1
69 83 1
69 111 1
70 102 -1
70 114 1
70 109 1
70 125 -1
70 78 1
70 95 1
70 180 1
70 166 1
70 179 1
70 126 1
70 155 -1
70 91 -1
71 150 1
71 159 -1
71 172 1
71 132 -1
71 83 -1
71 98 -1
71 78 1
71 93 1
71 142 -1
72 154 1
72 165 1
72 126 -1
72 178 1
72 129 1
72 139 -1
72 151 -1
72 119 -1
72 137 -1
72 141 1
73 176 1
73 158 -1
73 134 -1
73 106 1
73 104 1
73 92 1
73 129 -1
73 93 1
73 148 -1
73 130 -1
73 174 1
73 82 1
73 105 1
73 118 1
73 112 1
73 114 1
74 166 -1
74 105 -1
74 110 1
74 108 1
74 82 -1
74 140 -1
74 176 1
74 159 1
74 170 1
74 172 -1
74 99 1
75 78 -1
75 146 -1
75 134 1
75 165 1
75 177 -1
75 155 -1
75 81 -1
75 102 1
75 149 -1
75 99 1
75 85 1
75 141 1
76 174 1
76 158 1
76 84 1
76 119 -1
76 128 1
76 86 1
76 180 1
76 108 -1
76 80 -1
76 99 1
76 142 1
76 169 -1
76 150 -1
76 138 1
76 155 -1
76 162 -1
76 94 1
76 109 1
76 157 1
77 166 1
77 83 -1
77 106 -1
77 177 1
77 138 -1
77 149 1
77 132 1
77 158 1
78 136 1
78 155 -1
78 159 1
78 131 -1
78 170 1
78 88 -1
78 98 -1
78 137 -1
78 142 -1
78 95 -1
78 79 1
78 92 -1
79 161 1
79 176 1
79 128 1
79 116 -1
79 94 1
79 84 1
79 158 1
79 120 -1
79 104 -1
79 133 1
79 150 -1
79 118 -1
79 139 -1
80 156 -1
80 145 1
80 170 1
80 177 -1
80 158 -1
80 95 1
80 129 1
80 92 -1
80 115 1
80 131 -1
80 100 -1
80 152 1
81 98 -1
81 155 1
81 130 1
81 91 1
81 171 1
81 101 -1
81 105 1
81 147 -1
81 89 1
81 93 -1
81 177 1
81 172 -1
81 157 1
82 160 -1
82 154 -1
82 108 1
82 152 1
82 156 -1
82 166 1
82 98 1
82 92 -1
82 126 1
82 143 -1
82 131 1
83 164 1
83 86 -1
83 92 1
83 91 1
83 109 -1
83 168 -1
83 118 1
83 165 1
84 140 1
84 152 -1
84 96 -1
84 115 -1
84 113 1
84 169 1
84 127 1
85 164 1
85 90 -1
85 108 -1
85 137 1
85 129 -1
85 151 1
85 157 1
86 136 -1
86 122 1
86 100 1
86 157 -1
86 137 1
86 117 -1
86 116 -1
86 108 -1
86 175 -1
86 124 -1
86 164 -1
87 177 -1
87 179 1
87 155 1
87 116 -1
87 166 1
87 145 1
87 162 -1
87 127 -1
87 105 -1
87 158 1
88 99 -1
88 172 -1
88 108 -1
88 98 -1
88 141 1
88 124 -1
89 169 1
89 95 1
89 117 1
89 102 -1
89 149 -1
89 158 1
89 165 -1
90 145 1
90 107 1
90 92 -1
90 117 -1
90 140 -1
90 123 -1
90 122 -1
90 178 -1
90 148 -1
91 176 1
91 180 1
91 96 1
91 110 -1
91 115 1
91 127 -1
91 141 -1
91 178 -1
91 107 -1
92 142 1
92 123 -1
92 107 -1
92 100 1
92 104 -1
92 111 1
92 119 -1
93 133 -1
93 95 -1
93 180 1
93 120 -1
93 150 -1
93 117 1
93 134 1
93 156 -1
93 118 1
93 122 1
94 167 -1
94 124 1
94 106 -1
94 132 1
94 116 -1
94 168 -1
94 102 1
94 166 1
94 107 1
94 176 1
95 146 1
95 105 1
95 106 -1
95 133 -1
95 110 1
95 147 -1
95 173 1
95 136 -1
95 155 -1
95 103 1
96 116 1
96 132 -1
96 176 -1
96 130 -1
96 140 -1
96 153 -1
96 127 1
96 115 -1
96 108 -1
96 117 -1
96 158 1
97 117 1
97 174 1
97 145 1
97 151 1
97 141 -1
98 147 1
98 155 -1
98 139 1
98 99 1
98 166 -1
98 152 -1
98 125 1
99 177 1
99 147 -1
99 154 -1
99 126 -1
99 178 -1
99 175 1
99 166 -1
99 158 1
99 128 -1
99 149 -1
99 143 1
99 130 -1
99 145 -1
99 107 1
100 112 -1
100 146 1
100 117 -1
100 139 1
100 109 -1
100 130 -1
101 147 1
101 134 -1
101 121 1
101 141 1
101 173 -1
101 160 -1
101 103 -1
101 180 -1
101 114 1
101 176 1
101 135 -1
102 133 -1
102 180 1
102 175 -1
102 159 -1
102 149 1
102 131 -1
103 119 -1
103 156 1
103 180 1
103 146 -1
103 177 1
103 161 -1
103 121 -1
103 127 -1
103 125 -1
103 163 -1
103 158 -1
103 106 -1
103 160 1
103 122 -1
104 146 1
104 171 1
104 176 -1
104 108 -1
104 143 -1
104 155 -1
104 137 1
105 169 1
105 121 1
105 176 -1
105 128 1
105 179 -1
105 115 1
105 113 -1
105 131 1
105 170 1
106 153 1
107 144 1
107 178 1
107 116 1
107 142 -1
108 159 1
108 174 1
108 116 1
108 148 -1
108 139 1
108 167 -1
108 163 1
108 152 1
108 177 -1
108 135 1
109 157 1
109 127 1
109 110 1
109 120 1
109 148 1
109 152 1
109 115 -1
109 134 -1
109 111 1
109 168 1
110 144 -1
110 145 -1
110 122 1
110 149 1
110 178 1
110 173 1
111 174 -1
111 137 -1
111 139 -1
111 121 -1
111 154 -1
111 145 -1
112 142 -1
112 171 1
112 125 1
112 119 -1
112 150 -1
112 126 1
112 163 1
112 118 1
113 162 -1
113 154 1
113 152 1
113 132 1
113 138 -1
114 120 1
114 142 -1
114 154 1
114 148 -1
114 141 1
115 125 -1
115 171 -1
115 141 -1
115 134 -1
115 118 -1
115 119 -1
116 150 1
116 172 1
116 142 -1
117 140 1
117 120 -1
117 139 1
117 166 1
118 129 1
118 176 1
118 156 -1
118 166 -1
118 153 1
119 123 1
119 167 1
119 156 1
119 145 1
119 152 1
119 157 -1
119 154 1
120 178 1
120 174 1
120 179 1
120 140 1
120 175 1
120 123 1
120 149 -1
120 155 1
120 177 -1
121 124 1
121 177 1
121 172 1
121 125 -1
121 154 -1
122 134 1
122 178 1
122 156 -1
123 171 -1
123 146 -1
123 172 -1
123 166 -1
123 126 -1
123 175 1
124 146 -1
124 158 -1
124 164 1
124 170 -1
125 159 -1
125 166 -1
125 146 -1
125 171 -1
125 148 1
125 138 -1
126 173 1
126 148 1
126 136 1
127 149 -1
127 166 1
127 158 -1
127 161 1
127 173 -1
127 162 1
128 146 1
128 134 1
128 180 -1
128 140 1
128 150 -1
129 165 1
129 161 -1
129 132 -1
129 168 -1
129 139 1
129 156 -1
129 146 1
129 150 -1
130 151 1
130 160 -1
130 146 1
130 170 -1
130 168 1
131 169 1
131 159 -1
131 156 1
131 173 1
131 134 1
131 170 1
131 137 1
132 173 1
132 134 1
132 149 -1
132 162 -1
132 165 1
133 143 -1
133 171 -1
133 153 1
134 145 -1
134 171 -1
134 167 -1
134 148 1
134 159 -1
134 178 1
135 148 -1
135 149 1
135 138 -1
135 157 -1
136 172 -1
136 173 -1
136 176 1
136 177 -1
136 169 -1
136 137 -1
137 161 1
137 160 1
137 153 1
138 163 1
138 166 1
138 144 -1
138 180 -1
138 143 1
138 168 -1
138 153 -1
138 157 1
139 148 1
139 169 -1
139 140 -1
140 148 -1
140 141 1
140 167 -1
140 178 -1
140 176 -1
141 150 1
141 163 1
142 161 -1
142 176 -1
143 179 1
143 162 1
143 175 1
143 157 -1
144 148 -1
144 171 -1
144 168 1
144 151 -1
145 164 1
145 176 -1
145 147 -1
145 146 -1
146 154 1
146 173 1
146 148 1
146 149 1
147 150 1
147 177 -1
147 157 1
147 180 1
147 172 -1
147 156 1
147 170 1
147 178 -1
148 149 -1
148 178 -1
148 173 1
149 174 1
150 159 1
150 168 1
150 180 -1
150 172 1
151 159 -1
152 165 1
152 164 -1
152 174 -1
152 171 -1
153 162 1
153 156 1
155 169 -1
157 172 1
157 159 -1
158 172 1
158 176 -1
158 171 -1
159 175 -1
160 169 1
161 166 1
162 175 -1
163 165 -1
163 175 1
165 175 1
165 180 1
166 173 1
166 175 -1
166 179 1
167 174 -1
168 177 -1
168 180 -1
168 174 -1
169 174 1
170 175 1
170 172 -1
172 179 -1
172 177 -1
173 180 -1
173 179 -1
173 175 1
178 179 1
